nApps = 42
nRes = 6
nActs = 86
nNetworks = 4

assignmentToResources = [2,2,1,2,1,2,2,1,2,1,1,2,1,2,2,1,1,2,2,2,1,1,1,1,2,2,1,2,2,2,4,4,4,3,4,3,4,3,4,4,3,3,3,3,3,4,4,4,4,3,3,4,3,6,4,5,3,6,4,5,4,5,4,5,5,5,5,6,5,6,5,6,5,5,6,6,6,6,6,5,5,5,5,6,6,5];

processingTimes = [144,64,120,136,128,144,112,144,120,56,72,120,104,144,80,112,64,120,80,112,152,136,104,160,104,64,112,112,48,152,4,3,3,500,3,500,3,300,3,3,500,4,4,4,4,4,4,3,500,150,500,3,4,4,3,3,4,4,4,4,5,5,7,7,4,3,3,500,3,500,3,300,3,3,500,4,4,4,4,4,4,3,500,150,500,3];

periods = [10000,10000,10000,2000,10000,10000,10000,2000,10000,10000,10000,10000,10000,10000,10000,10000,2000,2000,1000,10000,10000,1000,10000,10000,10000,10000,10000,10000,10000,10000,10000,10000,10000,10000,2000,10000,10000,2000,10000,10000,10000,10000,10000,10000,10000,10000,1000,1000,10000,1000,10000,10000,10000,10000,2000,2000,2000,2000,10000,10000,10000,10000,1000,1000,10000,10000,10000,10000,2000,10000,10000,2000,10000,10000,10000,10000,10000,10000,10000,10000,1000,1000,10000,1000,10000,10000];

assignmentToClusters = [1,2,3,4,5,6,7,4,8,9,10,11,12,5,13,14,4,4,15,16,5,15,7,17,18,3,5,19,20,20,21,22,23,24,25,26,27,28,29,30,31,32,33,34,35,36,37,38,39,40,41,42,3,3,4,4,4,4,5,5,7,7,15,15,21,22,23,24,25,26,27,28,29,30,31,32,33,34,35,36,37,38,39,40,41,42];

precedenceAdjList = [[],[],[],[],[20],[],[],[16],[],[],[],[],[],[],[],[],[55],[57],[],[],[59],[63],[61],[],[],[53],[4],[],[29],[],[],[],[],[],[],[],[],[],[],[],[],[],[],[],[],[],[],[],[],[],[],[],[2],[52],[3],[54],[7],[56],[13],[58],[6],[60],[18],[62],[30],[31],[32],[33],[34],[35],[36],[37],[38],[39],[40],[41],[42],[43],[44],[45],[46],[47],[48],[49],[50],[51]];